proyfinal/src/viki/013/andrea/andrea-localstore/experimentInOfficeAgust.take6/worker_10/f195680d-0382-4364-a9ee-f8bac7b228d5.als.cnf.out
Reading from standard input... Use '--help' for help.
============================[ Problem Statistics ]=============================
|                                                                             |
|  Number of variables:         87638                                         |
|  Number of clauses:          161767                                         |
|  Parse time:                   0.03 s                                       |
|                                                                             |
============================[ Search Statistics ]==============================
| Conflicts |          ORIGINAL         |          LEARNT          | Progress |
|           |    Vars  Clauses Literals |    Limit  Clauses Lit/Cl |          |
===============================================================================
|       100 |   63839   110880   275971 |    40656      100     13 | 27.156 % |
|       250 |   63839   110880   275971 |    44721      250     21 | 27.156 % |
|       475 |   63838   110836   275881 |    49193      474     31 | 27.157 % |
|       812 |   63838   110836   275881 |    54113      811     39 | 27.157 % |
|      1318 |   63838   110836   275881 |    59524     1317     64 | 27.157 % |
|      2077 |   63838   110836   275881 |    65476     2076     65 | 27.157 % |
|      3216 |   63828   110803   275797 |    72024     3211     61 | 27.169 % |
|      4924 |   63828   110800   275791 |    79227     4919     66 | 27.169 % |
|      7486 |   63828   110800   275791 |    87149     7481     67 | 27.169 % |
|     11330 |   63745   110491   274970 |    95864    11254     72 | 27.263 % |
===============================================================================
restarts              : 62
conflicts             : 14974          (8583 /sec)
decisions             : 49546          (0.00 % random) (28399 /sec)
propagations          : 19533266       (11195985 /sec)
conflict literals     : 1102220        (49.44 % deleted)
Memory used           : 36.91 MB
CPU time              : 1.74467 s

INDETERMINATE
